MARKOV
228
 2 2 2 2 2 2 2 2 2 2 2 2 2 2 2 2 2 2 2 2 2 2 2 2 2 2 2 2 2 2 2 2 2 2 2 2 2 2 2 2 2 2 2 2 2 2 2 2 2 2 2 2 2 2 2 2 2 2 2 2 2 2 2 2 2 2 2 2 2 2 2 2 2 2 2 2 2 2 2 2 2 2 2 2 2 2 2 2 2 2 2 2 2 2 2 2 2 2 2 2 2 2 2 2 2 2 2 2 2 2 2 2 2 2 2 2 2 2 2 2 2 2 2 2 2 2 2 2 2 2 2 2 2 2 2 2 2 2 2 2 2 2 2 2 2 2 2 2 2 2 2 2 2 2 2 2 2 2 2 2 2 2 2 2 2 2 2 2 2 2 2 2 2 2 2 2 2 2 2 2 2 2 2 2 2 2 2 2 2 2 2 2 2 2 2 2 2 2 2 2 2 2 2 2 2 2 2 2 2 2 2 2 2 2 2 2 2 2 2 2 2 2 2 2 2 2 2 2
853
1	0 
1	1 
1	2 
1	3 
1	4 
1	5 
1	6 
1	7 
1	8 
1	9 
1	10 
1	11 
1	12 
1	13 
1	14 
1	15 
1	16 
1	17 
1	18 
1	19 
1	20 
1	21 
1	22 
1	23 
1	24 
1	25 
1	26 
1	27 
1	28 
1	29 
1	30 
1	31 
1	32 
1	33 
1	34 
1	35 
1	36 
1	37 
1	38 
1	39 
1	40 
1	41 
1	42 
1	43 
1	44 
1	45 
1	46 
1	47 
1	48 
1	49 
1	50 
1	51 
1	52 
1	53 
1	54 
1	55 
1	56 
1	57 
1	58 
1	59 
1	60 
1	61 
1	62 
1	63 
1	64 
1	65 
1	66 
1	67 
1	68 
1	69 
1	70 
1	71 
1	72 
1	73 
1	74 
1	75 
1	76 
1	77 
1	78 
1	79 
1	80 
1	81 
1	82 
1	83 
1	84 
1	85 
1	86 
1	87 
1	88 
1	89 
1	90 
1	91 
1	92 
1	93 
1	94 
1	95 
1	96 
1	97 
1	98 
1	99 
1	100 
1	101 
1	102 
1	103 
1	104 
1	105 
1	106 
1	107 
1	108 
1	109 
1	110 
1	111 
1	112 
1	113 
1	114 
1	115 
1	116 
1	117 
1	118 
1	119 
1	120 
1	121 
1	122 
1	123 
1	124 
1	125 
1	126 
1	127 
1	128 
1	129 
1	130 
1	131 
1	132 
1	133 
1	134 
1	135 
1	136 
1	137 
1	138 
1	139 
1	140 
1	141 
1	142 
1	143 
1	144 
1	145 
1	146 
1	147 
1	148 
1	149 
1	150 
1	151 
1	152 
1	153 
1	154 
1	155 
1	156 
1	157 
1	158 
1	159 
1	160 
1	161 
1	162 
1	163 
1	164 
1	165 
1	166 
1	167 
1	168 
1	169 
1	170 
1	171 
1	172 
1	173 
1	174 
1	175 
1	176 
1	177 
1	178 
1	179 
1	180 
1	181 
1	182 
1	183 
1	184 
1	185 
1	186 
1	187 
1	188 
1	189 
1	190 
1	191 
1	192 
1	193 
1	194 
1	195 
1	196 
1	197 
1	198 
1	199 
1	200 
1	201 
1	202 
1	203 
1	204 
1	205 
1	206 
1	207 
1	208 
1	209 
1	210 
1	211 
1	212 
1	213 
1	214 
1	215 
1	216 
1	217 
1	218 
1	219 
1	220 
1	221 
1	222 
1	223 
1	224 
1	225 
1	226 
1	227 
2	1 2 
2	1 133 
2	1 134 
2	1 135 
2	1 136 
2	1 197 
2	1 198 
2	2 134 
2	2 197 
2	2 201 
2	3 4 
2	3 6 
2	3 7 
2	3 8 
2	3 75 
2	3 76 
2	4 8 
2	4 75 
2	4 98 
2	4 115 
2	5 6 
2	5 7 
2	5 21 
2	5 42 
2	6 21 
2	6 22 
2	6 76 
2	6 140 
2	7 8 
2	7 42 
2	7 180 
2	7 182 
2	8 98 
2	8 100 
2	8 182 
2	9 10 
2	9 11 
2	9 12 
2	9 123 
2	10 11 
2	10 51 
2	11 51 
2	11 52 
2	11 121 
2	11 123 
2	11 205 
2	12 122 
2	12 123 
2	13 14 
2	13 15 
2	13 47 
2	13 188 
2	13 189 
2	13 190 
2	14 46 
2	14 47 
2	14 49 
2	14 188 
2	15 47 
2	15 48 
2	15 189 
2	15 192 
2	16 17 
2	16 18 
2	16 53 
2	17 18 
2	17 203 
2	18 52 
2	18 53 
2	18 203 
2	18 204 
2	19 20 
2	19 150 
2	19 151 
2	19 152 
2	19 153 
2	20 97 
2	20 150 
2	20 153 
2	20 212 
2	21 22 
2	21 23 
2	21 25 
2	21 42 
2	22 23 
2	22 72 
2	22 140 
2	23 24 
2	23 25 
2	23 72 
2	24 25 
2	24 26 
2	24 27 
2	25 27 
2	25 40 
2	25 42 
2	26 27 
2	27 39 
2	27 40 
2	28 29 
2	28 125 
2	28 126 
2	28 127 
2	28 223 
2	29 126 
2	29 134 
2	29 166 
2	29 223 
2	30 33 
2	30 84 
2	30 86 
2	30 87 
2	31 32 
2	31 43 
2	31 102 
2	31 105 
2	32 33 
2	32 105 
2	32 107 
2	33 84 
2	33 107 
2	34 35 
2	34 37 
2	34 58 
2	35 36 
2	35 37 
2	35 38 
2	35 60 
2	35 193 
2	36 37 
2	36 38 
2	36 185 
2	38 56 
2	38 184 
2	38 185 
2	38 193 
2	39 40 
2	39 41 
2	39 179 
2	40 41 
2	40 42 
2	41 42 
2	41 179 
2	41 180 
2	42 180 
2	43 44 
2	43 102 
2	43 106 
2	44 45 
2	44 67 
2	44 104 
2	44 106 
2	45 67 
2	45 68 
2	45 161 
2	46 47 
2	46 49 
2	46 50 
2	46 158 
2	46 226 
2	47 48 
2	47 50 
2	48 50 
2	48 71 
2	48 142 
2	48 156 
2	48 192 
2	49 88 
2	49 188 
2	49 210 
2	49 226 
2	50 155 
2	50 156 
2	50 158 
2	51 52 
2	51 53 
2	52 53 
2	52 204 
2	52 205 
2	54 55 
2	54 57 
2	54 175 
2	54 178 
2	54 206 
2	54 207 
2	55 56 
2	55 57 
2	55 176 
2	55 178 
2	55 184 
2	56 57 
2	56 184 
2	56 193 
2	56 196 
2	57 195 
2	57 196 
2	57 206 
2	58 59 
2	58 60 
2	58 61 
2	58 224 
2	59 60 
2	59 61 
2	59 193 
2	59 194 
2	59 196 
2	60 193 
2	61 157 
2	61 194 
2	61 224 
2	61 225 
2	62 63 
2	62 64 
2	62 80 
2	62 112 
2	63 64 
2	63 65 
2	63 99 
2	63 112 
2	63 114 
2	64 80 
2	64 82 
2	64 99 
2	65 66 
2	65 99 
2	65 114 
2	65 160 
2	65 162 
2	65 167 
2	66 69 
2	66 161 
2	66 162 
2	66 167 
2	66 173 
2	67 68 
2	67 104 
2	67 198 
2	68 69 
2	68 161 
2	68 172 
2	68 198 
2	69 161 
2	69 172 
2	69 173 
2	70 71 
2	70 73 
2	70 142 
2	70 143 
2	71 142 
2	71 156 
2	72 73 
2	72 140 
2	73 140 
2	73 141 
2	73 143 
2	74 75 
2	74 76 
2	74 77 
2	74 115 
2	74 116 
2	74 146 
2	74 147 
2	75 76 
2	75 115 
2	76 140 
2	76 145 
2	76 146 
2	77 116 
2	77 119 
2	77 144 
2	77 147 
2	77 191 
2	78 79 
2	78 81 
2	78 82 
2	78 100 
2	78 101 
2	78 108 
2	79 81 
2	79 108 
2	79 109 
2	80 81 
2	80 82 
2	81 82 
2	82 99 
2	82 101 
2	83 85 
2	83 86 
2	83 87 
2	83 203 
2	83 204 
2	84 87 
2	84 103 
2	84 107 
2	85 86 
2	85 203 
2	86 87 
2	87 103 
2	87 149 
2	87 204 
2	87 211 
2	87 214 
2	88 89 
2	88 91 
2	88 188 
2	88 210 
2	89 90 
2	89 91 
2	89 118 
2	89 154 
2	89 188 
2	90 117 
2	90 118 
2	90 188 
2	90 190 
2	91 152 
2	91 154 
2	91 208 
2	91 210 
2	92 94 
2	92 97 
2	92 211 
2	92 212 
2	92 213 
2	93 94 
2	93 95 
2	93 96 
2	93 97 
2	93 130 
2	93 131 
2	94 96 
2	94 97 
2	94 199 
2	94 200 
2	94 211 
2	95 96 
2	95 128 
2	95 130 
2	95 163 
2	95 165 
2	96 163 
2	96 200 
2	97 131 
2	97 153 
2	97 212 
2	98 100 
2	98 115 
2	98 215 
2	98 219 
2	99 101 
2	99 167 
2	99 168 
2	99 169 
2	100 101 
2	100 108 
2	100 110 
2	100 182 
2	100 216 
2	100 219 
2	101 169 
2	101 217 
2	102 105 
2	102 106 
2	102 202 
2	103 107 
2	103 199 
2	104 106 
2	104 197 
2	104 198 
2	105 107 
2	105 200 
2	105 202 
2	106 197 
2	106 202 
2	107 199 
2	107 200 
2	108 109 
2	108 110 
2	109 110 
2	109 181 
2	110 181 
2	110 182 
2	111 112 
2	111 113 
2	112 113 
2	112 114 
2	113 114 
2	113 160 
2	114 160 
2	115 116 
2	115 215 
2	115 221 
2	116 119 
2	116 120 
2	116 220 
2	116 221 
2	117 118 
2	117 119 
2	117 120 
2	117 125 
2	117 127 
2	117 190 
2	117 191 
2	118 124 
2	118 125 
2	118 154 
2	119 120 
2	119 191 
2	120 127 
2	120 220 
2	121 123 
2	121 148 
2	121 149 
2	121 177 
2	121 205 
2	122 123 
2	122 183 
2	122 186 
2	122 187 
2	123 177 
2	123 183 
2	124 125 
2	124 126 
2	124 128 
2	124 129 
2	124 132 
2	124 154 
2	125 126 
2	125 127 
2	126 128 
2	126 165 
2	126 166 
2	127 220 
2	127 223 
2	128 130 
2	128 132 
2	128 165 
2	129 131 
2	129 132 
2	129 153 
2	129 154 
2	130 131 
2	130 132 
2	131 132 
2	131 153 
2	133 135 
2	133 136 
2	133 137 
2	133 138 
2	133 139 
2	133 222 
2	134 135 
2	134 166 
2	134 201 
2	134 223 
2	135 138 
2	135 223 
2	136 139 
2	136 172 
2	136 198 
2	137 139 
2	137 171 
2	137 218 
2	137 222 
2	138 220 
2	138 221 
2	138 222 
2	138 223 
2	139 170 
2	139 171 
2	139 172 
2	140 141 
2	140 145 
2	141 143 
2	141 145 
2	141 146 
2	142 143 
2	142 144 
2	142 192 
2	143 144 
2	143 146 
2	143 147 
2	144 147 
2	144 191 
2	144 192 
2	145 146 
2	146 147 
2	148 149 
2	148 150 
2	148 151 
2	148 174 
2	148 177 
2	148 178 
2	148 213 
2	149 204 
2	149 205 
2	149 213 
2	149 214 
2	150 151 
2	150 212 
2	150 213 
2	151 152 
2	151 175 
2	151 178 
2	152 153 
2	152 154 
2	152 175 
2	152 207 
2	152 208 
2	153 154 
2	155 156 
2	155 157 
2	155 158 
2	155 159 
2	157 159 
2	157 224 
2	157 225 
2	158 159 
2	158 225 
2	158 226 
2	159 225 
2	160 162 
2	161 162 
2	163 164 
2	163 165 
2	163 200 
2	163 202 
2	164 165 
2	164 166 
2	164 201 
2	164 202 
2	165 166 
2	166 201 
2	167 168 
2	167 170 
2	167 173 
2	168 169 
2	168 170 
2	168 171 
2	169 171 
2	169 217 
2	169 218 
2	170 171 
2	170 172 
2	170 173 
2	171 218 
2	172 173 
2	172 198 
2	174 176 
2	174 177 
2	174 178 
2	174 183 
2	175 178 
2	175 207 
2	176 178 
2	176 183 
2	176 184 
2	176 187 
2	177 183 
2	179 180 
2	179 181 
2	180 181 
2	180 182 
2	181 182 
2	183 187 
2	184 185 
2	184 186 
2	184 187 
2	185 186 
2	186 187 
2	188 190 
2	189 190 
2	189 191 
2	189 192 
2	190 191 
2	191 192 
2	193 196 
2	194 195 
2	194 196 
2	194 225 
2	195 196 
2	195 206 
2	195 225 
2	195 227 
2	197 198 
2	197 201 
2	197 202 
2	199 200 
2	199 211 
2	200 202 
2	201 202 
2	203 204 
2	204 205 
2	206 207 
2	206 209 
2	206 227 
2	207 208 
2	207 209 
2	208 209 
2	208 210 
2	209 210 
2	209 227 
2	210 226 
2	210 227 
2	211 213 
2	211 214 
2	212 213 
2	213 214 
2	215 218 
2	215 219 
2	215 221 
2	215 222 
2	216 217 
2	216 219 
2	217 218 
2	217 219 
2	218 219 
2	218 222 
2	220 221 
2	220 223 
2	221 222 
2	225 226 
2	225 227 
2	226 227 
0	

2
 0.252912 1
2
 0.129621 1
2
 0.218158 1
2
 0.204484 1
2
 0.101245 1
2
 1 0.501503
2
 0.405155 1
2
 0.407307 1
2
 0.321383 1
2
 0.373432 1
2
 0.708771 1
2
 0.421182 1
2
 0.165776 1
2
 0.271797 1
2
 0.0871267 1
2
 0.291943 1
2
 1 0.114398
2
 0.890889 1
2
 1 0.413912
2
 0.243409 1
2
 0.130268 1
2
 0.567516 1
2
 0.933238 1
2
 1 0.194602
2
 1 0.309186
2
 1 0.47597
2
 1 0.201976
2
 1 0.255732
2
 0.0814617 1
2
 0.156041 1
2
 1 0.923514
2
 1 0.601603
2
 1 0.843254
2
 0.723301 1
2
 1 0.630203
2
 1 0.565877
2
 1 0.521657
2
 1 0.882318
2
 1 0.667275
2
 1 0.233827
2
 1 0.43588
2
 1 0.746557
2
 1 0.570904
2
 1 0.476062
2
 1 0.684626
2
 1 0.371142
2
 0.110173 1
2
 0.183583 1
2
 0.538905 1
2
 0.134981 1
2
 1 0.865422
2
 1 0.353203
2
 1 0.491847
2
 1 0.453633
2
 0.811631 1
2
 0.578616 1
2
 0.779266 1
2
 1 0.793762
2
 1 0.318424
2
 1 0.624348
2
 1 0.805413
2
 1 0.593716
2
 1 0.284421
2
 1 0.21372
2
 1 0.927468
2
 0.231951 1
2
 0.960152 1
2
 0.938407 1
2
 0.609162 1
2
 0.322275 1
2
 0.570656 1
2
 0.15713 1
2
 0.255129 1
2
 0.557841 1
2
 0.108846 1
2
 0.197029 1
2
 0.747084 1
2
 0.0846572 1
2
 0.980072 1
2
 1 0.787648
2
 1 0.0900768
2
 1 0.904029
2
 1 0.713804
2
 0.733869 1
2
 1 0.749424
2
 1 0.505653
2
 1 0.478581
2
 0.161991 1
2
 0.156112 1
2
 0.204602 1
2
 0.711722 1
2
 0.165067 1
2
 0.31507 1
2
 0.080813 1
2
 0.185555 1
2
 0.269845 1
2
 0.183059 1
2
 0.0990416 1
2
 0.285559 1
2
 1 0.243345
2
 0.26381 1
2
 1 0.984092
2
 0.339809 1
2
 1 0.53284
2
 0.186902 1
2
 1 0.955642
2
 0.39003 1
2
 0.633122 1
2
 1 0.585324
2
 1 0.362289
2
 0.576683 1
2
 1 0.0918996
2
 1 0.134156
2
 1 0.303384
2
 1 0.537086
2
 0.138759 1
2
 0.181242 1
2
 0.269825 1
2
 0.364656 1
2
 0.266306 1
2
 0.30487 1
2
 0.836165 1
2
 0.325397 1
2
 0.165539 1
2
 0.274171 1
2
 0.199454 1
2
 0.217313 1
2
 0.543022 1
2
 0.0750505 1
2
 0.075703 1
2
 0.266675 1
2
 0.123111 1
2
 0.132602 1
2
 0.181848 1
2
 0.486976 1
2
 0.332318 1
2
 0.137616 1
2
 0.240428 1
2
 0.134486 1
2
 0.067758 1
2
 0.203083 1
2
 0.658859 1
2
 0.353668 1
2
 0.41871 1
2
 0.0606269 1
2
 0.58483 1
2
 0.145418 1
2
 0.360372 1
2
 0.94723 1
2
 0.254625 1
2
 0.727278 1
2
 0.465116 1
2
 0.273535 1
2
 0.188437 1
2
 0.245624 1
2
 0.436904 1
2
 0.263529 1
2
 1 0.410407
2
 0.539633 1
2
 1 0.358661
2
 1 0.702307
2
 1 0.240488
2
 1 0.304569
2
 0.157665 1
2
 0.613395 1
2
 0.128385 1
2
 0.0589442 1
2
 1 0.687477
2
 1 0.448479
2
 1 0.447128
2
 0.239139 1
2
 0.350619 1
2
 0.964838 1
2
 1 0.742807
2
 0.200112 1
2
 0.2409 1
2
 0.320904 1
2
 0.656194 1
2
 0.150566 1
2
 1 0.441232
2
 0.992515 1
2
 1 0.408915
2
 0.311602 1
2
 0.769108 1
2
 1 0.982826
2
 1 0.70855
2
 1 0.565943
2
 1 0.446151
2
 0.0503969 1
2
 0.0675507 1
2
 0.0723804 1
2
 0.0711854 1
2
 0.148313 1
2
 0.585703 1
2
 0.87459 1
2
 0.982768 1
2
 0.793582 1
2
 0.82287 1
2
 0.749738 1
2
 0.776341 1
2
 0.521105 1
2
 0.757208 1
2
 0.492969 1
2
 0.756878 1
2
 0.458379 1
2
 1 0.601752
2
 0.534962 1
2
 0.267367 1
2
 0.0808755 1
2
 0.182128 1
2
 0.110986 1
2
 0.621701 1
2
 0.445143 1
2
 0.401932 1
2
 1 0.986344
2
 0.480341 1
2
 1 0.47186
2
 0.501431 1
2
 0.52765 1
2
 0.068206 1
2
 0.211695 1
2
 0.359334 1
2
 0.0592783 1
2
 0.0660716 1
2
 1 0.862017
2
 1 0.901372
2
 0.486172 1
2
 0.713339 1
4
 1 0.301205 0.301205 0.986961
4
 1 0.295515 0.295515 0.99341
4
 1 0.299773 0.299773 0.99146
4
 1 0.297128 0.297128 0.993578
4
 1 0.29788 0.29788 0.988014
4
 1 0.303749 0.303749 0.981765
4
 1 0.300661 0.300661 0.983144
4
 1 0.301494 0.301494 0.990682
4
 1 0.305492 0.305492 0.980994
4
 1 0.304787 0.304787 0.985135
4
 0.958911 0.258516 0.258516 1
4
 0.948735 0.25172 0.25172 1
4
 0.952685 0.252828 0.252828 1
4
 0.95762 0.256074 0.256074 1
4
 0.956114 0.257871 0.257871 1
4
 0.951989 0.255104 0.255104 1
4
 0.962741 0.259725 0.259725 1
4
 0.961228 0.261547 0.261547 1
4
 0.967673 0.264256 0.264256 1
4
 0.966695 0.265573 0.265573 1
4
 0.942893 0.246869 0.246869 1
4
 0.946819 0.247955 0.247955 1
4
 0.93814 0.242748 0.242748 1
4
 0.942417 0.244204 0.244204 1
4
 0.93893 0.244447 0.244447 1
4
 0.937139 0.244659 0.244659 1
4
 0.946925 0.251938 0.251938 1
4
 0.939985 0.247554 0.247554 1
4
 0.956491 0.25401 0.25401 1
4
 0.947139 0.246995 0.246995 1
4
 0.951938 0.249102 0.249102 1
4
 0.955526 0.251893 0.251893 1
4
 0.96637 0.26176 0.26176 1
4
 0.966317 0.259034 0.259034 1
4
 0.960474 0.255128 0.255128 1
4
 1 0.345222 0.345222 0.976222
4
 1 0.34309 0.34309 0.976605
4
 1 0.341379 0.341379 0.985143
4
 1 0.340132 0.340132 0.982932
4
 1 0.345586 0.345586 0.972064
4
 1 0.349286 0.349286 0.967979
4
 1 0.347129 0.347129 0.96836
4
 1 0.346189 0.346189 0.966947
4
 1 0.340677 0.340677 0.973976
4
 1 0.340491 0.340491 0.978746
4
 1 0.342584 0.342584 0.969447
4
 1 0.338075 0.338075 0.992806
4
 1 0.338792 0.338792 0.987302
4
 0.961224 0.28005 0.28005 1
4
 0.954608 0.273454 0.273454 1
4
 0.954608 0.274825 0.274825 1
4
 0.964738 0.281513 0.281513 1
4
 0.958798 0.275627 0.275627 1
4
 0.963061 0.278412 0.278412 1
4
 0.957667 0.279862 0.279862 1
4
 0.955358 0.276619 0.276619 1
4
 0.963655 0.28407 0.28407 1
4
 0.965497 0.283351 0.283351 1
4
 0.948783 0.270103 0.270103 1
4
 0.944849 0.266243 0.266243 1
4
 0.952948 0.270892 0.270892 1
4
 0.948943 0.267788 0.267788 1
4
 1 0.361039 0.361039 0.944145
4
 1 0.357419 0.357419 0.949141
4
 1 0.3573 0.3573 0.952452
4
 1 0.358979 0.358979 0.944887
4
 1 0.359134 0.359134 0.942238
4
 1 0.352149 0.352149 0.955665
4
 1 0.355261 0.355261 0.9532
4
 1 0.355532 0.355532 0.947224
4
 1 0.350754 0.350754 0.954217
4
 1 0.32146 0.32146 0.993081
4
 1 0.323326 0.323326 0.992747
4
 1 0.320156 0.320156 0.999571
4
 0.998129 0.316348 0.316348 1
4
 1 0.317446 0.317446 0.998449
4
 1 0.322131 0.322131 0.987354
4
 1 0.324789 0.324789 0.989408
4
 1 0.318884 0.318884 0.99509
4
 1 0.324877 0.324877 0.985526
4
 0.932415 0.240575 0.240575 1
4
 0.929697 0.237586 0.237586 1
4
 0.931945 0.237582 0.237582 1
4
 0.938457 0.241808 0.241808 1
4
 0.927924 0.237792 0.237792 1
4
 0.929018 0.240525 0.240525 1
4
 0.933463 0.243634 0.243634 1
4
 0.923817 0.232295 0.232295 1
4
 0.927456 0.234833 0.234833 1
4
 0.92631 0.237537 0.237537 1
4
 0.926051 0.232291 0.232291 1
4
 0.921539 0.227591 0.227591 1
4
 0.925324 0.230016 0.230016 1
4
 0.928968 0.232529 0.232529 1
4
 0.933045 0.235946 0.235946 1
4
 0.936194 0.239007 0.239007 1
4
 0.924441 0.227825 0.227825 1
4
 0.933151 0.232648 0.232648 1
4
 0.932313 0.233635 0.233635 1
4
 0.995335 0.295968 0.295968 1
4
 0.98965 0.293295 0.293295 1
4
 0.994999 0.297615 0.297615 1
4
 0.988318 0.290041 0.290041 1
4
 0.9926 0.292211 0.292211 1
4
 0.998525 0.30039 0.30039 1
4
 1 0.299564 0.299564 0.998164
4
 1 0.30189 0.30189 0.996876
4
 0.996118 0.294936 0.294936 1
4
 1 0.340493 0.340493 0.948072
4
 1 0.339513 0.339513 0.951058
4
 1 0.345421 0.345421 0.946637
4
 1 0.342064 0.342064 0.950952
4
 1 0.329393 0.329393 0.952179
4
 1 0.323258 0.323258 0.95464
4
 1 0.323018 0.323018 0.958024
4
 1 0.325536 0.325536 0.957002
4
 1 0.335108 0.335108 0.95015
4
 1 0.328353 0.328353 0.95609
4
 1 0.331049 0.331049 0.955017
4
 1 0.337024 0.337024 0.95202
4
 1 0.333903 0.333903 0.953892
4
 0.956749 0.299791 0.299791 1
4
 0.95648 0.301096 0.301096 1
4
 0.950484 0.293547 0.293547 1
4
 0.967391 0.308374 0.308374 1
4
 0.961488 0.304089 0.304089 1
4
 0.967445 0.306978 0.306978 1
4
 0.960194 0.300214 0.300214 1
4
 0.964733 0.303446 0.303446 1
4
 0.967119 0.309717 0.309717 1
4
 0.973111 0.31266 0.31266 1
4
 0.978206 0.31788 0.31788 1
4
 0.9753 0.311179 0.311179 1
4
 0.978536 0.315069 0.315069 1
4
 0.978261 0.316441 0.316441 1
4
 0.970438 0.307663 0.307663 1
4
 0.937247 0.236067 0.236067 1
4
 0.941097 0.238184 0.238184 1
4
 0.943531 0.238513 0.238513 1
4
 0.940251 0.239194 0.239194 1
4
 0.939565 0.240143 0.240143 1
4
 0.943424 0.242297 0.242297 1
4
 0.946555 0.241672 0.241672 1
4
 0.948204 0.244364 0.244364 1
4
 0.947512 0.245334 0.245334 1
4
 1 0.316858 0.316858 0.957484
4
 1 0.319744 0.319744 0.959584
4
 1 0.317281 0.317281 0.960824
4
 1 0.310691 0.310691 0.959852
4
 1 0.310334 0.310334 0.963308
4
 1 0.311401 0.311401 0.963957
4
 1 0.314183 0.314183 0.962119
4
 1 0.307295 0.307295 0.96439
4
 1 0.304822 0.304822 0.966124
4
 1 0.30453 0.30453 0.962495
4
 0.951076 0.27464 0.27464 1
4
 0.959335 0.282037 0.282037 1
4
 0.94793 0.27352 0.27352 1
4
 0.952144 0.278595 0.278595 1
4
 0.956914 0.28178 0.28178 1
4
 0.944849 0.267578 0.267578 1
4
 0.945644 0.270351 0.270351 1
4
 0.941723 0.266487 0.266487 1
4
 0.937767 0.260811 0.260811 1
4
 0.941672 0.261959 0.261959 1
4
 0.938925 0.264372 0.264372 1
4
 0.945009 0.265285 0.265285 1
4
 0.970715 0.289448 0.289448 1
4
 0.967179 0.285553 0.285553 1
4
 0.968645 0.289643 0.289643 1
4
 0.962897 0.286016 0.286016 1
4
 0.942198 0.271197 0.271197 1
4
 0.939716 0.267111 0.267111 1
4
 0.946706 0.274244 0.274244 1
4
 1 0.349895 0.349895 0.962883
4
 1 0.352987 0.352987 0.9604
4
 1 0.352032 0.352032 0.958998
4
 1 0.347565 0.347565 0.960021
4
 1 0.345315 0.345315 0.963964
4
 0.983661 0.31294 0.31294 1
4
 0.979472 0.308181 0.308181 1
4
 0.985597 0.311253 0.311253 1
4
 0.987424 0.314488 0.314488 1
4
 0.978428 0.30547 0.30547 1
4
 0.982834 0.308185 0.308185 1
4
 0.981123 0.313552 0.313552 1
4
 0.980628 0.311204 0.311204 1
4
 0.989644 0.319857 0.319857 1
4
 0.988589 0.317574 0.317574 1
4
 0.984378 0.317472 0.317472 1
4
 0.976945 0.308784 0.308784 1
4
 0.980682 0.315004 0.315004 1
4
 0.972566 0.307599 0.307599 1
4
 0.972293 0.305863 0.305863 1
4
 0.971694 0.301777 0.301777 1
4
 0.971803 0.303572 0.303572 1
4
 0.975411 0.303776 0.303776 1
4
 0.952087 0.291287 0.291287 1
4
 0.953906 0.293961 0.293961 1
4
 0.949312 0.288148 0.288148 1
4
 0.946597 0.287083 0.287083 1
4
 0.956803 0.294971 0.294971 1
4
 0.952195 0.289138 0.289138 1
4
 0.961327 0.298147 0.298147 1
4
 0.956858 0.292171 0.292171 1
4
 0.961058 0.296464 0.296464 1
4
 0.963164 0.300883 0.300883 1
4
 0.946864 0.282993 0.282993 1
4
 0.954068 0.289022 0.289022 1
4
 0.946704 0.284965 0.284965 1
4
 0.953426 0.286935 0.286935 1
4
 1 0.277904 0.277904 0.992235
4
 1 0.276547 0.276547 0.995863
4
 0.999486 0.273039 0.273039 1
4
 1 0.277447 0.277447 0.989508
4
 1 0.279325 0.279325 0.992904
4
 1 0.285291 0.285291 0.983472
4
 1 0.281342 0.281342 0.990788
4
 1 0.280233 0.280233 0.986568
4
 1 0.283191 0.283191 0.984245
4
 0.998812 0.27425 0.27425 1
4
 0.998643 0.2757 0.2757 1
4
 1 0.279968 0.279968 0.994411
4
 1 0.291856 0.291856 0.976594
4
 1 0.285949 0.285949 0.984964
4
 1 0.287828 0.287828 0.978459
4
 1 0.290269 0.290269 0.973527
4
 1 0.292891 0.292891 0.972326
4
 1 0.288821 0.288821 0.982038
4
 1 0.295689 0.295689 0.974622
4
 1 0.297578 0.297578 0.969764
4
 1 0.294803 0.294803 0.971235
4
 1 0.290706 0.290706 0.980936
4
 1 0.293433 0.293433 0.97923
4
 1 0.304472 0.304472 0.969602
4
 1 0.307996 0.307996 0.968514
4
 1 0.30438 0.30438 0.973202
4
 1 0.299818 0.299818 0.972546
4
 1 0.301733 0.301733 0.967698
4
 1 0.29936 0.29936 0.976321
4
 1 0.301931 0.301931 0.974952
4
 1 0.299531 0.299531 0.968893
4
 1 0.297175 0.297175 0.977528
4
 1 0.295359 0.295359 0.978351
4
 0.933722 0.255019 0.255019 1
4
 0.931471 0.249139 0.249139 1
4
 0.93761 0.256141 0.256141 1
4
 0.936874 0.254056 0.254056 1
4
 0.938505 0.259036 0.259036 1
4
 0.935767 0.261422 0.261422 1
4
 0.928756 0.243189 0.243189 1
4
 0.931839 0.243372 0.243372 1
4
 0.9332 0.246332 0.246332 1
4
 0.933514 0.248258 0.248258 1
4
 0.935507 0.251003 0.251003 1
4
 0.958425 0.262202 0.262202 1
4
 0.95429 0.259388 0.259388 1
4
 0.959663 0.265905 0.265905 1
4
 0.963876 0.266238 0.266238 1
4
 0.96485 0.268475 0.268475 1
4
 0.952149 0.259754 0.259754 1
4
 0.955415 0.262808 0.262808 1
4
 0.95429 0.258094 0.258094 1
4
 0.963876 0.26491 0.26491 1
4
 0.94321 0.250882 0.250882 1
4
 0.946446 0.253408 0.253408 1
4
 0.948041 0.255685 0.255685 1
4
 0.966097 0.270909 0.270909 1
4
 0.965229 0.272058 0.272058 1
4
 0.956273 0.266541 0.266541 1
4
 0.95665 0.26519 0.26519 1
4
 0.961226 0.270415 0.270415 1
4
 0.978494 0.261282 0.261282 1
4
 0.982955 0.264166 0.264166 1
4
 0.987158 0.268246 0.268246 1
4
 0.97586 0.262424 0.262424 1
4
 0.984501 0.267627 0.267627 1
4
 0.975367 0.260458 0.260458 1
4
 0.980915 0.261399 0.261399 1
4
 0.973343 0.257729 0.257729 1
4
 0.970669 0.254882 0.254882 1
4
 0.989768 0.266954 0.266954 1
4
 0.994 0.271077 0.271077 1
4
 0.989601 0.268366 0.268366 1
4
 1 0.278069 0.278069 0.999224
4
 0.991157 0.271882 0.271882 1
4
 1 0.350305 0.350305 0.9485
4
 1 0.34789 0.34789 0.949619
4
 1 0.344509 0.344509 0.953948
4
 1 0.351785 0.351785 0.94882
4
 1 0.347057 0.347057 0.955825
4
 1 0.338579 0.338579 0.954911
4
 1 0.334917 0.334917 0.957434
4
 1 0.332942 0.332942 0.956896
4
 1 0.350267 0.350267 0.945044
4
 1 0.354188 0.354188 0.944249
4
 1 0.344472 0.344472 0.950472
4
 1 0.337434 0.337434 0.957327
4
 1 0.339462 0.339462 0.961152
4
 1 0.343647 0.343647 0.956684
4
 1 0.336887 0.336887 0.960397
4
 1 0.338948 0.338948 0.959373
4
 0.977059 0.292039 0.292039 1
4
 0.97931 0.29568 0.29568 1
4
 0.97257 0.288715 0.288715 1
4
 0.974045 0.29285 0.29285 1
4
 0.976566 0.288886 0.288886 1
4
 0.980246 0.29506 0.29506 1
4
 0.980797 0.292507 0.292507 1
4
 0.983057 0.297143 0.297143 1
4
 0.9735 0.28811 0.28811 1
4
 0.975635 0.285182 0.285182 1
4
 0.979367 0.289958 0.289958 1
4
 0.97208 0.285599 0.285599 1
4
 0.97039 0.282453 0.282453 1
4
 0.987593 0.305108 0.305108 1
4
 0.985322 0.300848 0.300848 1
4
 0.982615 0.300516 0.300516 1
4
 0.977223 0.295879 0.295879 1
4
 1 0.325446 0.325446 0.974739
4
 1 0.32445 0.32445 0.979402
4
 1 0.330132 0.330132 0.969934
4
 1 0.327216 0.327216 0.977589
4
 1 0.329795 0.329795 0.974302
4
 1 0.320213 0.320213 0.980722
4
 1 0.314323 0.314323 0.98774
4
 1 0.317996 0.317996 0.981658
4
 1 0.319233 0.319233 0.985414
4
 1 0.314692 0.314692 0.990073
4
 1 0.316052 0.316052 0.991074
4
 1 0.321086 0.321086 0.976546
4
 1 0.322335 0.322335 0.980282
4
 1 0.326189 0.326189 0.970424
4
 1 0.322762 0.322762 0.972278
4
 1 0.32798 0.32798 0.970806
4
 1 0.31518 0.31518 0.983534
4
 1 0.30892 0.30892 0.994641
4
 1 0.311905 0.311905 0.991964
4
 1 0.313381 0.313381 0.984307
4
 1 0.310005 0.310005 0.990072
4
 1 0.317043 0.317043 0.978246
4
 1 0.320526 0.320526 0.973206
4
 1 0.318147 0.318147 0.99063
4
 1 0.318109 0.318109 0.99269
4
 1 0.324088 0.324088 0.983149
4
 0.971267 0.263554 0.263554 1
4
 0.970339 0.267654 0.267654 1
4
 0.974653 0.269009 0.269009 1
4
 0.97438 0.267491 0.267491 1
4
 0.998082 0.277643 0.277643 1
4
 1 0.284822 0.284822 0.989343
4
 1 0.282631 0.282631 0.993574
4
 1 0.280722 0.280722 0.998608
4
 0.979813 0.265981 0.265981 1
4
 0.970723 0.258856 0.258856 1
4
 0.967621 0.25761 0.25761 1
4
 0.965341 0.256876 0.256876 1
4
 0.973233 0.262693 0.262693 1
4
 0.974326 0.264705 0.264705 1
4
 0.991769 0.274646 0.274646 1
4
 0.986991 0.271469 0.271469 1
4
 1 0.321998 0.321998 0.961959
4
 1 0.317045 0.317045 0.964229
4
 1 0.31708 0.31708 0.967755
4
 1 0.331815 0.331815 0.959317
4
 1 0.331423 0.331423 0.962555
4
 1 0.311817 0.311817 0.967319
4
 1 0.308564 0.308564 0.972493
4
 1 0.305426 0.305426 0.973859
4
 1 0.327172 0.327172 0.959855
4
 1 0.323352 0.323352 0.964935
4
 1 0.319552 0.319552 0.966724
4
 1 0.311321 0.311321 0.970639
4
 1 0.314637 0.314637 0.969006
4
 1 0.329468 0.329468 0.962014
4
 1 0.326006 0.326006 0.963852
4
 0.967567 0.254078 0.254078 1
4
 0.967132 0.25568 0.25568 1
4
 0.964475 0.252856 0.252856 1
4
 0.960584 0.249058 0.249058 1
4
 0.960152 0.250628 0.250628 1
4
 0.96177 0.253725 0.253725 1
4
 1 0.281205 0.281205 0.978897
4
 1 0.284268 0.284268 0.973198
4
 1 0.282819 0.282819 0.978128
4
 1 0.282725 0.282725 0.98154
4
 1 0.285804 0.285804 0.975825
4
 1 0.288227 0.288227 0.970906
4
 1 0.288131 0.288131 0.974292
4
 0.970338 0.271248 0.271248 1
4
 0.973668 0.270349 0.270349 1
4
 0.975254 0.273106 0.273106 1
4
 0.970446 0.274687 0.274687 1
4
 0.974323 0.277355 0.277355 1
4
 0.976678 0.277351 0.277351 1
4
 0.97624 0.275401 0.275401 1
4
 0.979862 0.288756 0.288756 1
4
 0.972846 0.279897 0.279897 1
4
 0.976732 0.282615 0.282615 1
4
 0.98179 0.288641 0.288641 1
4
 0.980468 0.285438 0.285438 1
4
 0.97088 0.281282 0.281282 1
4
 0.968811 0.278206 0.278206 1
4
 0.98704 0.296686 0.296686 1
4
 0.985546 0.293474 0.293474 1
4
 0.985877 0.298246 0.298246 1
4
 0.973447 0.278532 0.278532 1
4
 0.965553 0.274186 0.274186 1
4
 0.981075 0.284046 0.284046 1
4
 0.979699 0.281232 0.281232 1
4
 1 0.33774 0.33774 0.980285
4
 1 0.33309 0.33309 0.982379
4
 1 0.337867 0.337867 0.971517
4
 1 0.335243 0.335243 0.980836
4
 1 0.339817 0.339817 0.970972
4
 1 0.336841 0.336841 0.990578
4
 1 0.334681 0.334681 0.995094
4
 0.998293 0.333038 0.333038 1
4
 1 0.333091 0.333091 0.99963
4
 1 0.335059 0.335059 0.985639
4
 1 0.335391 0.335391 0.989577
4
 0.988982 0.296567 0.296567 1
4
 0.994328 0.300934 0.300934 1
4
 0.995389 0.303099 0.303099 1
4
 0.991985 0.303094 0.303094 1
4
 0.994439 0.303736 0.303736 1
4
 0.989315 0.301389 0.301389 1
4
 0.992822 0.297677 0.297677 1
4
 0.986155 0.290102 0.290102 1
4
 0.999253 0.304233 0.304233 1
4
 1 0.305529 0.305529 0.99615
4
 1 0.303672 0.303672 0.997213
4
 0.983447 0.284041 0.284041 1
4
 0.989095 0.289029 0.289029 1
4
 1 0.309282 0.309282 0.99699
4
 0.999365 0.307065 0.307065 1
4
 1 0.307398 0.307398 0.995088
4
 0.998579 0.311238 0.311238 1
4
 0.995947 0.30706 0.30706 1
4
 0.996506 0.310555 0.310555 1
4
 0.990815 0.304687 0.304687 1
4
 1 0.313621 0.313621 0.995313
4
 1 0.310229 0.310229 0.997943
4
 1 0.31157 0.31157 0.998952
4
 1 0.31494 0.31494 0.998392
4
 1 0.293188 0.293188 0.999284
4
 1 0.29393 0.29393 0.993689
4
 0.998472 0.288473 0.288473 1
4
 0.995784 0.289251 0.289251 1
4
 1 0.291813 0.291813 0.995587
4
 0.994555 0.286308 0.286308 1
4
 1 0.297413 0.297413 0.997323
4
 1 0.30239 0.30239 0.993914
4
 1 0.303338 0.303338 0.989626
4
 0.999087 0.296305 0.296305 1
4
 0.995616 0.290781 0.290781 1
4
 0.996958 0.293065 0.293065 1
4
 1 0.294148 0.294148 0.990179
4
 1 0.296502 0.296502 0.984801
4
 1 0.299048 0.299048 0.98342
4
 1 0.289129 0.289129 0.997994
4
 0.997128 0.284323 0.284323 1
4
 0.991767 0.280664 0.280664 1
4
 0.992157 0.282991 0.282991 1
4
 0.986378 0.283936 0.283936 1
4
 0.985936 0.281941 0.281941 1
4
 0.989486 0.283754 0.283754 1
4
 0.992044 0.288922 0.288922 1
4
 1 0.290444 0.290444 0.991904
4
 1 0.288002 0.288002 0.996929
4
 1 0.294366 0.294366 0.986682
4
 0.936612 0.248445 0.248445 1
4
 0.939509 0.248999 0.248999 1
4
 0.938928 0.253157 0.253157 1
4
 0.939825 0.250947 0.250947 1
4
 0.94141 0.253202 0.253202 1
4
 0.941673 0.258058 0.258058 1
4
 0.947028 0.262467 0.262467 1
4
 0.945752 0.263479 0.263479 1
4
 0.946284 0.26033 0.26033 1
4
 0.94342 0.256001 0.256001 1
4
 0.946657 0.25901 0.25901 1
4
 0.952041 0.263436 0.263436 1
4
 0.956595 0.268626 0.268626 1
4
 0.950384 0.265799 0.265799 1
4
 0.944322 0.253766 0.253766 1
4
 0.949159 0.259056 0.259056 1
4
 1 0.333032 0.333032 0.97836
4
 1 0.327498 0.327498 0.989186
4
 1 0.324287 0.324287 0.995986
4
 1 0.328348 0.328348 0.992693
4
 1 0.330446 0.330446 0.987744
4
 1 0.324944 0.324944 0.99845
4
 1 0.330168 0.330168 0.981992
4
 1 0.341973 0.341973 0.963044
4
 1 0.339758 0.339758 0.967
4
 1 0.334904 0.334904 0.971134
4
 1 0.337297 0.337297 0.965751
4
 1 0.323472 0.323472 0.995874
4
 1 0.326762 0.326762 0.985195
4
 1 0.329338 0.329338 0.981881
4
 0.994995 0.315498 0.315498 1
4
 0.992985 0.316004 0.316004 1
4
 0.994826 0.319288 0.319288 1
4
 0.996114 0.31318 0.31318 1
4
 0.990425 0.307262 0.307262 1
4
 0.990702 0.312113 0.312113 1
4
 0.987925 0.309036 0.309036 1
4
 0.987703 0.306923 0.306923 1
4
 0.993824 0.308808 0.308808 1
4
 0.939399 0.269045 0.269045 1
4
 0.943097 0.276558 0.276558 1
4
 0.946387 0.27623 0.27623 1
4
 0.945961 0.277508 0.277508 1
4
 0.947183 0.280959 0.280959 1
4
 0.944156 0.281948 0.281948 1
4
 0.95086 0.283897 0.283897 1
4
 0.950487 0.280626 0.280626 1
4
 0.954177 0.283561 0.283561 1
4
 0.955679 0.282526 0.282526 1
4
 0.953748 0.284873 0.284873 1
4
 1 0.293199 0.293199 0.968185
4
 1 0.298633 0.298633 0.965526
4
 1 0.313061 0.313061 0.98017
4
 1 0.311838 0.311838 0.984749
4
 1 0.318697 0.318697 0.973971
4
 1 0.314952 0.314952 0.975777
4
 1 0.309688 0.309688 0.985911
4
 1 0.307805 0.307805 0.986963
4
 1 0.30877 0.30877 0.982704
4
 1 0.312781 0.312781 0.976928
4
 1 0.306602 0.306602 0.991573
4
 1 0.305693 0.305693 0.988349
4
 1 0.28547 0.28547 0.990622
4
 1 0.288275 0.288275 0.989066
4
 1 0.290381 0.290381 0.984689
4
 1 0.28136 0.28136 0.999899
4
 1 0.286057 0.286057 0.993296
4
 1 0.283652 0.283652 0.998328
4
 0.996625 0.280785 0.280785 1
4
 0.990266 0.274862 0.274862 1
4
 0.991267 0.277172 0.277172 1
4
 1 0.286439 0.286439 0.996761
4
 1 0.292768 0.292768 0.986516
4
 1 0.290979 0.290979 0.987347
4
 0.992826 0.279869 0.279869 1
4
 1 0.294908 0.294908 0.982149
4
 1 0.29927 0.29927 0.979947
4
 0.999192 0.326692 0.326692 1
4
 1 0.330471 0.330471 0.991133
4
 0.998127 0.32436 0.32436 1
4
 1 0.330798 0.330798 0.995093
4
 0.990534 0.315863 0.315863 1
4
 0.985929 0.309532 0.309532 1
4
 0.99343 0.32144 0.32144 1
4
 1 0.329371 0.329371 0.999798
4
 0.989199 0.321338 0.321338 1
4
 0.995663 0.326384 0.326384 1
4
 1 0.332911 0.332911 0.990132
4
 0.950657 0.244701 0.244701 1
4
 0.952634 0.244423 0.244423 1
4
 0.954293 0.247145 0.247145 1
4
 0.955902 0.250199 0.250199 1
4
 0.95789 0.249914 0.249914 1
4
 1 0.331657 0.331657 0.99862
4
 0.983659 0.32033 0.32033 1
4
 0.98831 0.323778 0.323778 1
4
 0.990366 0.32395 0.32395 1
4
 0.988032 0.325188 0.325188 1
4
 0.994768 0.328863 0.328863 1
4
 0.967343 0.281693 0.281693 1
4
 0.961387 0.275804 0.275804 1
4
 0.959338 0.272788 0.272788 1
4
 0.953109 0.269917 0.269917 1
4
 0.963603 0.275543 0.275543 1
4
 0.955306 0.269662 0.269662 1
4
 0.967446 0.302406 0.302406 1
4
 0.962841 0.294593 0.294593 1
4
 0.962949 0.296345 0.296345 1
4
 0.958095 0.289945 0.289945 1
4
 0.967067 0.298922 0.298922 1
4
 0.970658 0.299123 0.299123 1
4
 0.962193 0.292466 0.292466 1
4
 0.966145 0.294597 0.294597 1
4
 1 0.304941 0.304941 0.9772
4
 1 0.307361 0.307361 0.979949
4
 1 0.311354 0.311354 0.974188
4
 1 0.325621 0.325621 0.967105
4
 1 0.330885 0.330885 0.965641
4
 1 0.318413 0.318413 0.970749
4
 1 0.310635 0.310635 0.9783
4
 1 0.350905 0.350905 0.951541
4
 1 0.343947 0.343947 0.962504
4
 0.978759 0.303781 0.303781 1
4
 0.974263 0.299324 0.299324 1
4
 0.969841 0.296549 0.296549 1
4
 0.982945 0.304385 0.304385 1
4
 0.978649 0.301984 0.301984 1
4
 0.97843 0.299919 0.299919 1
4
 0.977332 0.297639 0.297639 1
4
 0.973061 0.295292 0.295292 1
4
 0.969733 0.294795 0.294795 1
4
 0.966201 0.289378 0.289378 1
4
 0.968645 0.292555 0.292555 1
4
 1 0.332363 0.332363 0.970371
4
 1 0.334738 0.334738 0.964991
4
 1 0.329426 0.329426 0.978029
4
 1 0.334396 0.334396 0.969336
4
 0.982732 0.273983 0.273983 1
4
 0.977723 0.270184 0.270184 1
4
 0.979591 0.274489 0.274489 1
4
 0.983117 0.276254 0.276254 1
4
 0.980363 0.268113 0.268113 1
4
 0.976352 0.266617 0.266617 1
4
 0.986492 0.273965 0.273965 1
4
 0.981464 0.270167 0.270167 1
4
 0.982456 0.272437 0.272437 1
4
 0.987877 0.278558 0.278558 1
4
 0.981627 0.279251 0.279251 1
4
 0.987708 0.286166 0.286166 1
4
 0.984719 0.279072 0.279072 1
4
 0.958957 0.286802 0.286802 1
4
 0.961383 0.28995 0.28995 1
4
 0.962896 0.288892 0.288892 1
1
 1

